p tw 50 118
e 0 9
e 0 10
e 0 14
e 0 20
e 0 21
e 0 27
e 0 36
e 1 9
e 1 24
e 1 25
e 1 44
e 2 6
e 2 18
e 2 29
e 2 30
e 2 31
e 2 37
e 2 46
e 3 10
e 3 11
e 3 28
e 3 39
e 3 41
e 4 18
e 4 35
e 5 8
e 5 9
e 5 19
e 5 28
e 5 30
e 5 33
e 6 8
e 6 9
e 6 15
e 6 30
e 6 49
e 7 9
e 7 11
e 7 12
e 7 21
e 7 35
e 7 49
e 8 18
e 8 22
e 8 32
e 8 49
e 9 10
e 9 32
e 9 39
e 10 30
e 10 33
e 11 31
e 11 42
e 12 22
e 13 18
e 13 24
e 13 35
e 14 22
e 15 17
e 15 19
e 15 23
e 15 32
e 15 47
e 16 26
e 16 29
e 16 35
e 16 36
e 16 38
e 16 41
e 16 42
e 17 21
e 17 28
e 17 45
e 17 46
e 18 20
e 18 27
e 18 29
e 18 31
e 18 32
e 19 33
e 19 36
e 20 21
e 21 25
e 21 26
e 21 33
e 21 34
e 21 39
e 22 39
e 22 45
e 24 39
e 25 33
e 25 37
e 25 44
e 26 41
e 27 43
e 29 37
e 29 49
e 30 40
e 30 41
e 30 44
e 31 33
e 31 39
e 31 40
e 31 45
e 31 46
e 33 40
e 34 44
e 36 39
e 37 41
e 37 43
e 37 45
e 37 46
e 40 41
e 41 42
e 42 44
e 43 44
e 47 49
e 48 49
